NAME /Users/henri/Research/solvers/instances/idol-instances/robust/collection/spp_dkp_Lefebvre_et_al_2026/shortest_path_10_1/uncertainty_sets/discrete_knapsack
ROWS
 N  OBJ
 L  primal_lower
COLUMNS
    MARKER    'MARKER'                 'INTORG'
    y[0,2]     OBJ        0
    y[0,2]     primal_lower -0.57
    y[0,3]     OBJ        0
    y[0,3]     primal_lower -3.02
    y[0,5]     OBJ        0
    y[0,5]     primal_lower -0.66
    y[0,6]     OBJ        0
    y[0,6]     primal_lower -1.19
    y[0,7]     OBJ        0
    y[0,7]     primal_lower -1.62
    y[0,8]     OBJ        0
    y[0,8]     primal_lower -4.26
    y[0,9]     OBJ        0
    y[0,9]     primal_lower -3.3
    y[1,2]     OBJ        0
    y[1,2]     primal_lower -2.68
    y[1,3]     OBJ        0
    y[1,3]     primal_lower -0.14
    y[1,4]     OBJ        0
    y[1,4]     primal_lower -3.64
    y[1,6]     OBJ        0
    y[1,6]     primal_lower -1.96
    y[1,8]     OBJ        0
    y[1,8]     primal_lower -3.98
    y[1,9]     OBJ        0
    y[1,9]     primal_lower -1.26
    y[2,0]     OBJ        0
    y[2,0]     primal_lower -0.28
    y[2,1]     OBJ        0
    y[2,1]     primal_lower -4.3
    y[2,3]     OBJ        0
    y[2,3]     primal_lower -1.1
    y[2,5]     OBJ        0
    y[2,5]     primal_lower -2.01
    y[2,6]     OBJ        0
    y[2,6]     primal_lower -1.57
    y[2,7]     OBJ        0
    y[2,7]     primal_lower -0.38
    y[2,8]     OBJ        0
    y[2,8]     primal_lower -4.18
    y[2,9]     OBJ        0
    y[2,9]     primal_lower -4.21
    y[3,0]     OBJ        0
    y[3,0]     primal_lower -4.82
    y[3,1]     OBJ        0
    y[3,1]     primal_lower -1.91
    y[3,2]     OBJ        0
    y[3,2]     primal_lower -4.73
    y[3,4]     OBJ        0
    y[3,4]     primal_lower -2.21
    y[3,5]     OBJ        0
    y[3,5]     primal_lower -3.32
    y[3,6]     OBJ        0
    y[3,6]     primal_lower -0.41
    y[3,8]     OBJ        0
    y[3,8]     primal_lower -4.45
    y[3,9]     OBJ        0
    y[3,9]     primal_lower -1.48
    y[4,1]     OBJ        0
    y[4,1]     primal_lower -1.3
    y[4,3]     OBJ        0
    y[4,3]     primal_lower -0.03
    y[4,6]     OBJ        0
    y[4,6]     primal_lower -2.69
    y[4,8]     OBJ        0
    y[4,8]     primal_lower -2.36
    y[4,9]     OBJ        0
    y[4,9]     primal_lower -3.16
    y[5,0]     OBJ        0
    y[5,0]     primal_lower -4.85
    y[5,2]     OBJ        0
    y[5,2]     primal_lower -4.51
    y[5,3]     OBJ        0
    y[5,3]     primal_lower -4.51
    y[5,6]     OBJ        0
    y[5,6]     primal_lower -2.6
    y[5,8]     OBJ        0
    y[5,8]     primal_lower -0.52
    y[5,9]     OBJ        0
    y[5,9]     primal_lower -0.9
    y[6,0]     OBJ        0
    y[6,0]     primal_lower -4.73
    y[6,1]     OBJ        0
    y[6,1]     primal_lower -2.04
    y[6,2]     OBJ        0
    y[6,2]     primal_lower -4.29
    y[6,3]     OBJ        0
    y[6,3]     primal_lower -3.33
    y[6,4]     OBJ        0
    y[6,4]     primal_lower -3.12
    y[6,5]     OBJ        0
    y[6,5]     primal_lower -1.37
    y[6,7]     OBJ        0
    y[6,7]     primal_lower -4.45
    y[6,8]     OBJ        0
    y[6,8]     primal_lower -1.03
    y[6,9]     OBJ        0
    y[6,9]     primal_lower -2.01
    y[7,0]     OBJ        0
    y[7,0]     primal_lower -4.93
    y[7,2]     OBJ        0
    y[7,2]     primal_lower -3.65
    y[7,6]     OBJ        0
    y[7,6]     primal_lower -2.21
    y[7,8]     OBJ        0
    y[7,8]     primal_lower -2.78
    y[7,9]     OBJ        0
    y[7,9]     primal_lower -2.04
    y[8,0]     OBJ        0
    y[8,0]     primal_lower -3.6
    y[8,1]     OBJ        0
    y[8,1]     primal_lower -1.98
    y[8,2]     OBJ        0
    y[8,2]     primal_lower -3.32
    y[8,3]     OBJ        0
    y[8,3]     primal_lower -3.49
    y[8,4]     OBJ        0
    y[8,4]     primal_lower -3.02
    y[8,5]     OBJ        0
    y[8,5]     primal_lower -2.68
    y[8,6]     OBJ        0
    y[8,6]     primal_lower -1.02
    y[8,7]     OBJ        0
    y[8,7]     primal_lower -0.99
    y[8,9]     OBJ        0
    y[8,9]     primal_lower -3.95
    y[9,0]     OBJ        0
    y[9,0]     primal_lower -1.44
    y[9,1]     OBJ        0
    y[9,1]     primal_lower -3.25
    y[9,2]     OBJ        0
    y[9,2]     primal_lower -1.49
    y[9,3]     OBJ        0
    y[9,3]     primal_lower -0.72
    y[9,4]     OBJ        0
    y[9,4]     primal_lower -2
    y[9,5]     OBJ        0
    y[9,5]     primal_lower -1.54
    y[9,6]     OBJ        0
    y[9,6]     primal_lower -1.21
    y[9,7]     OBJ        0
    y[9,7]     primal_lower -2.92
    y[9,8]     OBJ        0
    y[9,8]     primal_lower -1.22
    u[0,2]     OBJ        0
    u[0,2]     primal_lower 58
    u[0,3]     OBJ        0
    u[0,3]     primal_lower 35
    u[0,5]     OBJ        0
    u[0,5]     primal_lower 35
    u[0,6]     OBJ        0
    u[0,6]     primal_lower 51
    u[0,7]     OBJ        0
    u[0,7]     primal_lower 73
    u[0,8]     OBJ        0
    u[0,8]     primal_lower 49
    u[0,9]     OBJ        0
    u[0,9]     primal_lower 30
    u[1,2]     OBJ        0
    u[1,2]     primal_lower 85
    u[1,3]     OBJ        0
    u[1,3]     primal_lower 39
    u[1,4]     OBJ        0
    u[1,4]     primal_lower 82
    u[1,6]     OBJ        0
    u[1,6]     primal_lower 92
    u[1,8]     OBJ        0
    u[1,8]     primal_lower 58
    u[1,9]     OBJ        0
    u[1,9]     primal_lower 4
    u[2,0]     OBJ        0
    u[2,0]     primal_lower 58
    u[2,1]     OBJ        0
    u[2,1]     primal_lower 90
    u[2,3]     OBJ        0
    u[2,3]     primal_lower 76
    u[2,5]     OBJ        0
    u[2,5]     primal_lower 8
    u[2,6]     OBJ        0
    u[2,6]     primal_lower 95
    u[2,7]     OBJ        0
    u[2,7]     primal_lower 57
    u[2,8]     OBJ        0
    u[2,8]     primal_lower 67
    u[2,9]     OBJ        0
    u[2,9]     primal_lower 18
    u[3,0]     OBJ        0
    u[3,0]     primal_lower 96
    u[3,1]     OBJ        0
    u[3,1]     primal_lower 70
    u[3,2]     OBJ        0
    u[3,2]     primal_lower 28
    u[3,4]     OBJ        0
    u[3,4]     primal_lower 55
    u[3,5]     OBJ        0
    u[3,5]     primal_lower 24
    u[3,6]     OBJ        0
    u[3,6]     primal_lower 95
    u[3,8]     OBJ        0
    u[3,8]     primal_lower 11
    u[3,9]     OBJ        0
    u[3,9]     primal_lower 95
    u[4,1]     OBJ        0
    u[4,1]     primal_lower 24
    u[4,3]     OBJ        0
    u[4,3]     primal_lower 3
    u[4,6]     OBJ        0
    u[4,6]     primal_lower 77
    u[4,8]     OBJ        0
    u[4,8]     primal_lower 68
    u[4,9]     OBJ        0
    u[4,9]     primal_lower 51
    u[5,0]     OBJ        0
    u[5,0]     primal_lower 23
    u[5,2]     OBJ        0
    u[5,2]     primal_lower 63
    u[5,3]     OBJ        0
    u[5,3]     primal_lower 96
    u[5,6]     OBJ        0
    u[5,6]     primal_lower 27
    u[5,8]     OBJ        0
    u[5,8]     primal_lower 29
    u[5,9]     OBJ        0
    u[5,9]     primal_lower 62
    u[6,0]     OBJ        0
    u[6,0]     primal_lower 100
    u[6,1]     OBJ        0
    u[6,1]     primal_lower 6
    u[6,2]     OBJ        0
    u[6,2]     primal_lower 42
    u[6,3]     OBJ        0
    u[6,3]     primal_lower 88
    u[6,4]     OBJ        0
    u[6,4]     primal_lower 27
    u[6,5]     OBJ        0
    u[6,5]     primal_lower 25
    u[6,7]     OBJ        0
    u[6,7]     primal_lower 21
    u[6,8]     OBJ        0
    u[6,8]     primal_lower 85
    u[6,9]     OBJ        0
    u[6,9]     primal_lower 83
    u[7,0]     OBJ        0
    u[7,0]     primal_lower 58
    u[7,2]     OBJ        0
    u[7,2]     primal_lower 19
    u[7,6]     OBJ        0
    u[7,6]     primal_lower 71
    u[7,8]     OBJ        0
    u[7,8]     primal_lower 33
    u[7,9]     OBJ        0
    u[7,9]     primal_lower 69
    u[8,0]     OBJ        0
    u[8,0]     primal_lower 78
    u[8,1]     OBJ        0
    u[8,1]     primal_lower 80
    u[8,2]     OBJ        0
    u[8,2]     primal_lower 68
    u[8,3]     OBJ        0
    u[8,3]     primal_lower 71
    u[8,4]     OBJ        0
    u[8,4]     primal_lower 46
    u[8,5]     OBJ        0
    u[8,5]     primal_lower 37
    u[8,6]     OBJ        0
    u[8,6]     primal_lower 52
    u[8,7]     OBJ        0
    u[8,7]     primal_lower 54
    u[8,9]     OBJ        0
    u[8,9]     primal_lower 98
    u[9,0]     OBJ        0
    u[9,0]     primal_lower 9
    u[9,1]     OBJ        0
    u[9,1]     primal_lower 74
    u[9,2]     OBJ        0
    u[9,2]     primal_lower 65
    u[9,3]     OBJ        0
    u[9,3]     primal_lower 100
    u[9,4]     OBJ        0
    u[9,4]     primal_lower 40
    u[9,5]     OBJ        0
    u[9,5]     primal_lower 59
    u[9,6]     OBJ        0
    u[9,6]     primal_lower 56
    u[9,7]     OBJ        0
    u[9,7]     primal_lower 20
    u[9,8]     OBJ        0
    u[9,8]     primal_lower 38
    MARKER    'MARKER'                 'INTEND'
RHS
    RHS       primal_lower 357
BOUNDS
 LI BND       y[0,2]     0
 UI BND       y[0,2]     1
 LI BND       y[0,3]     0
 UI BND       y[0,3]     1
 LI BND       y[0,5]     0
 UI BND       y[0,5]     1
 LI BND       y[0,6]     0
 UI BND       y[0,6]     1
 LI BND       y[0,7]     0
 UI BND       y[0,7]     1
 LI BND       y[0,8]     0
 UI BND       y[0,8]     1
 LI BND       y[0,9]     0
 UI BND       y[0,9]     1
 LI BND       y[1,2]     0
 UI BND       y[1,2]     1
 LI BND       y[1,3]     0
 UI BND       y[1,3]     1
 LI BND       y[1,4]     0
 UI BND       y[1,4]     1
 LI BND       y[1,6]     0
 UI BND       y[1,6]     1
 LI BND       y[1,8]     0
 UI BND       y[1,8]     1
 LI BND       y[1,9]     0
 UI BND       y[1,9]     1
 LI BND       y[2,0]     0
 UI BND       y[2,0]     1
 LI BND       y[2,1]     0
 UI BND       y[2,1]     1
 LI BND       y[2,3]     0
 UI BND       y[2,3]     1
 LI BND       y[2,5]     0
 UI BND       y[2,5]     1
 LI BND       y[2,6]     0
 UI BND       y[2,6]     1
 LI BND       y[2,7]     0
 UI BND       y[2,7]     1
 LI BND       y[2,8]     0
 UI BND       y[2,8]     1
 LI BND       y[2,9]     0
 UI BND       y[2,9]     1
 LI BND       y[3,0]     0
 UI BND       y[3,0]     1
 LI BND       y[3,1]     0
 UI BND       y[3,1]     1
 LI BND       y[3,2]     0
 UI BND       y[3,2]     1
 LI BND       y[3,4]     0
 UI BND       y[3,4]     1
 LI BND       y[3,5]     0
 UI BND       y[3,5]     1
 LI BND       y[3,6]     0
 UI BND       y[3,6]     1
 LI BND       y[3,8]     0
 UI BND       y[3,8]     1
 LI BND       y[3,9]     0
 UI BND       y[3,9]     1
 LI BND       y[4,1]     0
 UI BND       y[4,1]     1
 LI BND       y[4,3]     0
 UI BND       y[4,3]     1
 LI BND       y[4,6]     0
 UI BND       y[4,6]     1
 LI BND       y[4,8]     0
 UI BND       y[4,8]     1
 LI BND       y[4,9]     0
 UI BND       y[4,9]     1
 LI BND       y[5,0]     0
 UI BND       y[5,0]     1
 LI BND       y[5,2]     0
 UI BND       y[5,2]     1
 LI BND       y[5,3]     0
 UI BND       y[5,3]     1
 LI BND       y[5,6]     0
 UI BND       y[5,6]     1
 LI BND       y[5,8]     0
 UI BND       y[5,8]     1
 LI BND       y[5,9]     0
 UI BND       y[5,9]     1
 LI BND       y[6,0]     0
 UI BND       y[6,0]     1
 LI BND       y[6,1]     0
 UI BND       y[6,1]     1
 LI BND       y[6,2]     0
 UI BND       y[6,2]     1
 LI BND       y[6,3]     0
 UI BND       y[6,3]     1
 LI BND       y[6,4]     0
 UI BND       y[6,4]     1
 LI BND       y[6,5]     0
 UI BND       y[6,5]     1
 LI BND       y[6,7]     0
 UI BND       y[6,7]     1
 LI BND       y[6,8]     0
 UI BND       y[6,8]     1
 LI BND       y[6,9]     0
 UI BND       y[6,9]     1
 LI BND       y[7,0]     0
 UI BND       y[7,0]     1
 LI BND       y[7,2]     0
 UI BND       y[7,2]     1
 LI BND       y[7,6]     0
 UI BND       y[7,6]     1
 LI BND       y[7,8]     0
 UI BND       y[7,8]     1
 LI BND       y[7,9]     0
 UI BND       y[7,9]     1
 LI BND       y[8,0]     0
 UI BND       y[8,0]     1
 LI BND       y[8,1]     0
 UI BND       y[8,1]     1
 LI BND       y[8,2]     0
 UI BND       y[8,2]     1
 LI BND       y[8,3]     0
 UI BND       y[8,3]     1
 LI BND       y[8,4]     0
 UI BND       y[8,4]     1
 LI BND       y[8,5]     0
 UI BND       y[8,5]     1
 LI BND       y[8,6]     0
 UI BND       y[8,6]     1
 LI BND       y[8,7]     0
 UI BND       y[8,7]     1
 LI BND       y[8,9]     0
 UI BND       y[8,9]     1
 LI BND       y[9,0]     0
 UI BND       y[9,0]     1
 LI BND       y[9,1]     0
 UI BND       y[9,1]     1
 LI BND       y[9,2]     0
 UI BND       y[9,2]     1
 LI BND       y[9,3]     0
 UI BND       y[9,3]     1
 LI BND       y[9,4]     0
 UI BND       y[9,4]     1
 LI BND       y[9,5]     0
 UI BND       y[9,5]     1
 LI BND       y[9,6]     0
 UI BND       y[9,6]     1
 LI BND       y[9,7]     0
 UI BND       y[9,7]     1
 LI BND       y[9,8]     0
 UI BND       y[9,8]     1
 LI BND       u[0,2]     0
 UI BND       u[0,2]     1
 LI BND       u[0,3]     0
 UI BND       u[0,3]     1
 LI BND       u[0,5]     0
 UI BND       u[0,5]     1
 LI BND       u[0,6]     0
 UI BND       u[0,6]     1
 LI BND       u[0,7]     0
 UI BND       u[0,7]     1
 LI BND       u[0,8]     0
 UI BND       u[0,8]     1
 LI BND       u[0,9]     0
 UI BND       u[0,9]     1
 LI BND       u[1,2]     0
 UI BND       u[1,2]     1
 LI BND       u[1,3]     0
 UI BND       u[1,3]     1
 LI BND       u[1,4]     0
 UI BND       u[1,4]     1
 LI BND       u[1,6]     0
 UI BND       u[1,6]     1
 LI BND       u[1,8]     0
 UI BND       u[1,8]     1
 LI BND       u[1,9]     0
 UI BND       u[1,9]     1
 LI BND       u[2,0]     0
 UI BND       u[2,0]     1
 LI BND       u[2,1]     0
 UI BND       u[2,1]     1
 LI BND       u[2,3]     0
 UI BND       u[2,3]     1
 LI BND       u[2,5]     0
 UI BND       u[2,5]     1
 LI BND       u[2,6]     0
 UI BND       u[2,6]     1
 LI BND       u[2,7]     0
 UI BND       u[2,7]     1
 LI BND       u[2,8]     0
 UI BND       u[2,8]     1
 LI BND       u[2,9]     0
 UI BND       u[2,9]     1
 LI BND       u[3,0]     0
 UI BND       u[3,0]     1
 LI BND       u[3,1]     0
 UI BND       u[3,1]     1
 LI BND       u[3,2]     0
 UI BND       u[3,2]     1
 LI BND       u[3,4]     0
 UI BND       u[3,4]     1
 LI BND       u[3,5]     0
 UI BND       u[3,5]     1
 LI BND       u[3,6]     0
 UI BND       u[3,6]     1
 LI BND       u[3,8]     0
 UI BND       u[3,8]     1
 LI BND       u[3,9]     0
 UI BND       u[3,9]     1
 LI BND       u[4,1]     0
 UI BND       u[4,1]     1
 LI BND       u[4,3]     0
 UI BND       u[4,3]     1
 LI BND       u[4,6]     0
 UI BND       u[4,6]     1
 LI BND       u[4,8]     0
 UI BND       u[4,8]     1
 LI BND       u[4,9]     0
 UI BND       u[4,9]     1
 LI BND       u[5,0]     0
 UI BND       u[5,0]     1
 LI BND       u[5,2]     0
 UI BND       u[5,2]     1
 LI BND       u[5,3]     0
 UI BND       u[5,3]     1
 LI BND       u[5,6]     0
 UI BND       u[5,6]     1
 LI BND       u[5,8]     0
 UI BND       u[5,8]     1
 LI BND       u[5,9]     0
 UI BND       u[5,9]     1
 LI BND       u[6,0]     0
 UI BND       u[6,0]     1
 LI BND       u[6,1]     0
 UI BND       u[6,1]     1
 LI BND       u[6,2]     0
 UI BND       u[6,2]     1
 LI BND       u[6,3]     0
 UI BND       u[6,3]     1
 LI BND       u[6,4]     0
 UI BND       u[6,4]     1
 LI BND       u[6,5]     0
 UI BND       u[6,5]     1
 LI BND       u[6,7]     0
 UI BND       u[6,7]     1
 LI BND       u[6,8]     0
 UI BND       u[6,8]     1
 LI BND       u[6,9]     0
 UI BND       u[6,9]     1
 LI BND       u[7,0]     0
 UI BND       u[7,0]     1
 LI BND       u[7,2]     0
 UI BND       u[7,2]     1
 LI BND       u[7,6]     0
 UI BND       u[7,6]     1
 LI BND       u[7,8]     0
 UI BND       u[7,8]     1
 LI BND       u[7,9]     0
 UI BND       u[7,9]     1
 LI BND       u[8,0]     0
 UI BND       u[8,0]     1
 LI BND       u[8,1]     0
 UI BND       u[8,1]     1
 LI BND       u[8,2]     0
 UI BND       u[8,2]     1
 LI BND       u[8,3]     0
 UI BND       u[8,3]     1
 LI BND       u[8,4]     0
 UI BND       u[8,4]     1
 LI BND       u[8,5]     0
 UI BND       u[8,5]     1
 LI BND       u[8,6]     0
 UI BND       u[8,6]     1
 LI BND       u[8,7]     0
 UI BND       u[8,7]     1
 LI BND       u[8,9]     0
 UI BND       u[8,9]     1
 LI BND       u[9,0]     0
 UI BND       u[9,0]     1
 LI BND       u[9,1]     0
 UI BND       u[9,1]     1
 LI BND       u[9,2]     0
 UI BND       u[9,2]     1
 LI BND       u[9,3]     0
 UI BND       u[9,3]     1
 LI BND       u[9,4]     0
 UI BND       u[9,4]     1
 LI BND       u[9,5]     0
 UI BND       u[9,5]     1
 LI BND       u[9,6]     0
 UI BND       u[9,6]     1
 LI BND       u[9,7]     0
 UI BND       u[9,7]     1
 LI BND       u[9,8]     0
 UI BND       u[9,8]     1
ENDATA
